
Gurobi 7.0.2 (linux64, Matlab) logging started Sun Sep  2 08:37:59 2018


Gurobi 7.0.2 (linux64) logging started Sun Sep  2 08:37:59 2018

Optimize a model with 18867 rows, 10742 columns and 78412 nonzeros
Coefficient statistics:
  Matrix range     [1e-05, 1e+06]
  Objective range  [2e-01, 4e+06]
  Bounds range     [1e-01, 3e+05]
  RHS range        [1e+00, 1e+06]
Iteration    Objective       Primal Inf.    Dual Inf.      Time
       0    5.6007256e+07   0.000000e+00   0.000000e+00      0s

Solved in 0 iterations and 0.01 seconds
Optimal objective  5.600725567e+07
